100
32
9
24
13
10
30
10
4
25
18
25
14
16
8
10
22
1
2
1
4
4
1
1
4
1
3
1
17
20
7
5
19
1
1
19
1
2
4
1
3
16
17
1
1
17
17
2
4
1
5
5
6
4
4
2
3
1
1
2
19
2
9
1
1
4
2
1
5
1
3
1
2
1
3
1
3
1
20
1
1
3
1
1
2
2
18
1
1
1
3
1
1
1
1
3
1
2
1
2
1
1